certificates/rado_a5_c99_N20.drat
-20 0
19 0
-15 0
14 0
16 0
-10 0
-18 0
-12 0
9 0
11 0
17 0
6 0
1 0
3 0
13 0
-5 0
0
